11111111111111111111111111111111111
10101000101010000010000000100000001
10101110101010111111101011111011111
10100010001000100010001000000000001
10111011101011101110111111101111111
10101000000000100010000010101000001
10101010101010101111111010101011111
10100010101010100000100010101000001
10111111101111101010111010101011101
10000000000010001010001010000010001
10111111111111101110111011111111101
10001010100010101000100010000010001
10101010101110101111111011101010111
10101000001000000010000000001010001
11101110111010101011111010111110101
10000000101010101000000010001010101
11101010101010101011111010111011111
10001010000010101000001010100000101
11101110101011111011111011111011101
10000010101000101000100000101010001
10101111101011101011111111101010101
10100010001000100010000000100010101
11101111101011101110101110111011101
10000010001000100010101010100010001
10111010111110101111101011111010101
10100010100000100000100000000000101
10101110101111111110101110101010101
10100010100010100000100010101010101
10111110111010101110101010111111111
10101000100000101010001010000010001
10101111111110111011101111111010111
10100000000000100000100000001000101
10101011111010111110111011111010101
10101010000010000000100000100010001
11111111111111111111111111111111111
